56
100
80	1
79	1
77	2
76	4
74	2
73	3
72	1
71	2
68	4
67	2
66	1
64	2
63	1
62	1
60	1
59	1
57	3
56	2
54	1
52	2
51	4
50	3
49	2
48	2
47	1
46	1
45	1
44	2
42	1
41	2
40	3
39	2
37	4
35	3
34	1
33	3
32	1
31	1
30	3
29	2
28	2
26	1
24	1
23	1
22	1
21	2
20	1
19	1
18	1
17	1
16	2
15	1
14	3
13	1
11	1
10	1
